NAME : portcgen-22-8
COMMENT : portcgen N=22, seed=8
TYPE : TSP
DIMENSION : 22
EDGE_WEIGHT_TYPE : EUC_2D
NODE_COORD_SECTION
1 -202225 12287
2 138331 137595
3 8171 -336503
4 -48407 -68617
5 -374513 125818
6 -15909 32280
7 -45341 -35544
8 161013 -185464
9 141597 -249277
10 112966 82381
11 53943 28280
12 101679 -150030
13 -87839 1494
14 -74781 155496
15 -112164 419499
16 -186177 316919
17 -261223 219330
18 -51182 152145
19 53908 -319713
20 -86510 243204
21 68887 280299
22 -160191 -70375
